p cnf 989 1574              
-9 -8 -62 0
62 -64 0
-8 63 0
-9 63 0
8 9 -63 0
63 -64 0
64 -68 0
-8 1 -65 0
65 -67 0
-9 2 -66 0
66 -67 0
67 -68 0
-1 68 -69 0
69 -78 0
-11 -10 -70 0
70 -72 0
-10 71 0
-11 71 0
10 11 -71 0
71 -72 0
72 -76 0
-10 1 -73 0
73 -75 0
-11 2 -74 0
74 -75 0
75 -76 0
-2 76 -77 0
77 -78 0
78 -744 0
-63 1 -79 0
79 -81 0
-71 2 -80 0
80 -81 0
81 -744 0
-13 -12 -82 0
82 -84 0
-12 83 0
-13 83 0
12 13 -83 0
83 -84 0
84 -88 0
-12 1 -85 0
85 -87 0
-13 2 -86 0
86 -87 0
87 -88 0
-3 88 -89 0
89 -98 0
-15 -14 -90 0
90 -92 0
-14 91 0
-15 91 0
14 15 -91 0
91 -92 0
92 -96 0
-14 1 -93 0
93 -95 0
-15 2 -94 0
94 -95 0
95 -96 0
-4 96 -97 0
97 -98 0
98 -744 0
-83 3 -99 0
99 -101 0
-91 4 -100 0
100 -101 0
101 -744 0
-17 -16 -102 0
102 -104 0
-16 103 0
-17 103 0
16 17 -103 0
103 -104 0
104 -108 0
-16 3 -105 0
105 -107 0
-17 4 -106 0
106 -107 0
107 -108 0
-5 108 -109 0
109 -118 0
-19 -18 -110 0
110 -112 0
-18 111 0
-19 111 0
18 19 -111 0
111 -112 0
112 -116 0
-18 3 -113 0
113 -115 0
-19 4 -114 0
114 -115 0
115 -116 0
-6 116 -117 0
117 -118 0
118 -744 0
-103 5 -119 0
119 -121 0
-111 6 -120 0
120 -121 0
121 -744 0
-21 -20 -122 0
122 -124 0
-20 123 0
-21 123 0
20 21 -123 0
123 -124 0
124 -128 0
-20 3 -125 0
125 -127 0
-21 4 -126 0
126 -127 0
127 -128 0
-5 128 -129 0
129 -138 0
-23 -22 -130 0
130 -132 0
-22 131 0
-23 131 0
22 23 -131 0
131 -132 0
132 -136 0
-22 3 -133 0
133 -135 0
-23 4 -134 0
134 -135 0
135 -136 0
-6 136 -137 0
137 -138 0
138 -744 0
-123 5 -139 0
139 -141 0
-131 6 -140 0
140 -141 0
141 -744 0
1 -142 0
3 -142 0
-24 142 -146 0
146 -150 0
1 -143 0
4 -143 0
-25 143 -147 0
147 -150 0
2 -144 0
3 -144 0
-26 144 -148 0
148 -150 0
2 -145 0
4 -145 0
-27 145 -149 0
149 -150 0
150 -166 0
-25 -24 -151 0
151 -156 0
-24 3 -153 0
153 -155 0
-25 4 -154 0
154 -155 0
155 -156 0
-1 156 -157 0
157 -165 0
-27 -26 -158 0
158 -163 0
-26 3 -160 0
160 -162 0
-27 4 -161 0
161 -162 0
162 -163 0
-2 163 -164 0
164 -165 0
165 -166 0
166 -176 0
-24 1 -167 0
167 -169 0
-26 2 -168 0
168 -169 0
-3 169 -170 0
170 -175 0
-25 1 -171 0
171 -173 0
-27 2 -172 0
172 -173 0
-4 173 -174 0
174 -175 0
175 -176 0
-5 176 -177 0
177 -210 0
-28 142 -178 0
178 -182 0
-29 143 -179 0
179 -182 0
-30 144 -180 0
180 -182 0
-31 145 -181 0
181 -182 0
182 -198 0
-29 -28 -183 0
183 -188 0
-28 3 -185 0
185 -187 0
-29 4 -186 0
186 -187 0
187 -188 0
-1 188 -189 0
189 -197 0
-31 -30 -190 0
190 -195 0
-30 3 -192 0
192 -194 0
-31 4 -193 0
193 -194 0
194 -195 0
-2 195 -196 0
196 -197 0
197 -198 0
198 -208 0
-28 1 -199 0
199 -201 0
-30 2 -200 0
200 -201 0
-3 201 -202 0
202 -207 0
-29 1 -203 0
203 -205 0
-31 2 -204 0
204 -205 0
-4 205 -206 0
206 -207 0
207 -208 0
-6 208 -209 0
209 -210 0
210 -744 0
-24 152 0
-25 152 0
-152 211 0
-26 159 0
-27 159 0
-159 211 0
-211 5 -213 0
213 -215 0
-28 184 0
-29 184 0
-184 212 0
-30 191 0
-31 191 0
-191 212 0
-212 6 -214 0
214 -215 0
215 -744 0
-32 142 -216 0
216 -220 0
-33 143 -217 0
217 -220 0
-34 144 -218 0
218 -220 0
-35 145 -219 0
219 -220 0
220 -238 0
-33 -32 -221 0
221 -223 0
-32 222 0
-33 222 0
32 33 -222 0
222 -223 0
223 -227 0
-32 3 -224 0
224 -226 0
-33 4 -225 0
225 -226 0
226 -227 0
-1 227 -228 0
228 -237 0
-35 -34 -229 0
229 -231 0
-34 230 0
-35 230 0
34 35 -230 0
230 -231 0
231 -235 0
-34 3 -232 0
232 -234 0
-35 4 -233 0
233 -234 0
234 -235 0
-2 235 -236 0
236 -237 0
237 -238 0
238 -248 0
-32 1 -239 0
239 -241 0
-34 2 -240 0
240 -241 0
-3 241 -242 0
242 -247 0
-33 1 -243 0
243 -245 0
-35 2 -244 0
244 -245 0
-4 245 -246 0
246 -247 0
247 -248 0
-5 248 -249 0
249 -284 0
-36 142 -250 0
250 -254 0
-37 143 -251 0
251 -254 0
-38 144 -252 0
252 -254 0
-39 145 -253 0
253 -254 0
254 -272 0
-37 -36 -255 0
255 -257 0
-36 256 0
-37 256 0
36 37 -256 0
256 -257 0
257 -261 0
-36 3 -258 0
258 -260 0
-37 4 -259 0
259 -260 0
260 -261 0
-1 261 -262 0
262 -271 0
-39 -38 -263 0
263 -265 0
-38 264 0
-39 264 0
38 39 -264 0
264 -265 0
265 -269 0
-38 3 -266 0
266 -268 0
-39 4 -267 0
267 -268 0
268 -269 0
-2 269 -270 0
270 -271 0
271 -272 0
272 -282 0
-36 1 -273 0
273 -275 0
-38 2 -274 0
274 -275 0
-3 275 -276 0
276 -281 0
-37 1 -277 0
277 -279 0
-39 2 -278 0
278 -279 0
-4 279 -280 0
280 -281 0
281 -282 0
-6 282 -283 0
283 -284 0
284 -744 0
-222 285 0
-230 285 0
-285 5 -287 0
287 -289 0
-256 286 0
-264 286 0
-286 6 -288 0
288 -289 0
289 -744 0
-40 142 -290 0
290 -294 0
-41 143 -291 0
291 -294 0
-42 144 -292 0
292 -294 0
-43 145 -293 0
293 -294 0
294 -312 0
-41 -40 -295 0
295 -297 0
-40 296 0
-41 296 0
40 41 -296 0
296 -297 0
297 -301 0
-40 3 -298 0
298 -300 0
-41 4 -299 0
299 -300 0
300 -301 0
-1 301 -302 0
302 -311 0
-43 -42 -303 0
303 -305 0
-42 304 0
-43 304 0
42 43 -304 0
304 -305 0
305 -309 0
-42 3 -306 0
306 -308 0
-43 4 -307 0
307 -308 0
308 -309 0
-2 309 -310 0
310 -311 0
311 -312 0
312 -322 0
-40 1 -313 0
313 -315 0
-42 2 -314 0
314 -315 0
-3 315 -316 0
316 -321 0
-41 1 -317 0
317 -319 0
-43 2 -318 0
318 -319 0
-4 319 -320 0
320 -321 0
321 -322 0
-5 322 -323 0
323 -358 0
-44 142 -324 0
324 -328 0
-45 143 -325 0
325 -328 0
-46 144 -326 0
326 -328 0
-47 145 -327 0
327 -328 0
328 -346 0
-45 -44 -329 0
329 -331 0
-44 330 0
-45 330 0
44 45 -330 0
330 -331 0
331 -335 0
-44 3 -332 0
332 -334 0
-45 4 -333 0
333 -334 0
334 -335 0
-1 335 -336 0
336 -345 0
-47 -46 -337 0
337 -339 0
-46 338 0
-47 338 0
46 47 -338 0
338 -339 0
339 -343 0
-46 3 -340 0
340 -342 0
-47 4 -341 0
341 -342 0
342 -343 0
-2 343 -344 0
344 -345 0
345 -346 0
346 -356 0
-44 1 -347 0
347 -349 0
-46 2 -348 0
348 -349 0
-3 349 -350 0
350 -355 0
-45 1 -351 0
351 -353 0
-47 2 -352 0
352 -353 0
-4 353 -354 0
354 -355 0
355 -356 0
-6 356 -357 0
357 -358 0
358 -744 0
-296 359 0
-304 359 0
-359 5 -361 0
361 -363 0
-330 360 0
-338 360 0
-360 6 -362 0
362 -363 0
363 -744 0
-48 142 -364 0
364 -368 0
-49 143 -365 0
365 -368 0
-50 144 -366 0
366 -368 0
-51 145 -367 0
367 -368 0
368 -386 0
-49 -48 -369 0
369 -371 0
-48 370 0
-49 370 0
48 49 -370 0
370 -371 0
371 -375 0
-48 3 -372 0
372 -374 0
-49 4 -373 0
373 -374 0
374 -375 0
-1 375 -376 0
376 -385 0
-51 -50 -377 0
377 -379 0
-50 378 0
-51 378 0
50 51 -378 0
378 -379 0
379 -383 0
-50 3 -380 0
380 -382 0
-51 4 -381 0
381 -382 0
382 -383 0
-2 383 -384 0
384 -385 0
385 -386 0
386 -396 0
-48 1 -387 0
387 -389 0
-50 2 -388 0
388 -389 0
-3 389 -390 0
390 -395 0
-49 1 -391 0
391 -393 0
-51 2 -392 0
392 -393 0
-4 393 -394 0
394 -395 0
395 -396 0
-5 396 -397 0
397 -432 0
-52 142 -398 0
398 -402 0
-53 143 -399 0
399 -402 0
-54 144 -400 0
400 -402 0
-55 145 -401 0
401 -402 0
402 -420 0
-53 -52 -403 0
403 -405 0
-52 404 0
-53 404 0
52 53 -404 0
404 -405 0
405 -409 0
-52 3 -406 0
406 -408 0
-53 4 -407 0
407 -408 0
408 -409 0
-1 409 -410 0
410 -419 0
-55 -54 -411 0
411 -413 0
-54 412 0
-55 412 0
54 55 -412 0
412 -413 0
413 -417 0
-54 3 -414 0
414 -416 0
-55 4 -415 0
415 -416 0
416 -417 0
-2 417 -418 0
418 -419 0
419 -420 0
420 -430 0
-52 1 -421 0
421 -423 0
-54 2 -422 0
422 -423 0
-3 423 -424 0
424 -429 0
-53 1 -425 0
425 -427 0
-55 2 -426 0
426 -427 0
-4 427 -428 0
428 -429 0
429 -430 0
-6 430 -431 0
431 -432 0
432 -744 0
-370 433 0
-378 433 0
-433 5 -435 0
435 -437 0
-404 434 0
-412 434 0
-434 6 -436 0
436 -437 0
437 -744 0
-56 3 -438 0
438 -440 0
-57 4 -439 0
439 -440 0
-7 440 -441 0
441 -744 0
-56 442 0
-57 442 0
-442 7 -443 0
443 -744 0
5 -444 0
56 -444 0
-58 444 -448 0
448 -452 0
6 -445 0
56 -445 0
-59 445 -449 0
449 -452 0
5 -446 0
57 -446 0
-60 446 -450 0
450 -452 0
6 -447 0
57 -447 0
-61 447 -451 0
451 -452 0
452 -470 0
-59 -58 -453 0
453 -455 0
-58 454 0
-59 454 0
58 59 -454 0
454 -455 0
455 -459 0
-58 5 -456 0
456 -458 0
-59 6 -457 0
457 -458 0
458 -459 0
-56 459 -460 0
460 -469 0
-61 -60 -461 0
461 -463 0
-60 462 0
-61 462 0
60 61 -462 0
462 -463 0
463 -467 0
-60 5 -464 0
464 -466 0
-61 6 -465 0
465 -466 0
466 -467 0
-57 467 -468 0
468 -469 0
469 -470 0
470 -480 0
-58 56 -471 0
471 -473 0
-60 57 -472 0
472 -473 0
-5 473 -474 0
474 -479 0
-59 56 -475 0
475 -477 0
-61 57 -476 0
476 -477 0
-6 477 -478 0
478 -479 0
479 -480 0
-7 480 -481 0
481 -744 0
-454 482 0
-462 482 0
-482 7 -483 0
483 -744 0
8 -484 0
9 -484 0
9 -486 0
11 -486 0
-9 -11 486 0
484 486 -490 0
9 490 -493 0
-2 493 -497 0
-1 497 -498 0
498 -501 0
8 -487 0
10 -487 0
-8 -10 487 0
10 -488 0
11 -488 0
487 488 -491 0
10 491 -494 0
-1 494 -499 0
-2 499 -500 0
500 -501 0
501 -744 0
12 503 0
-14 503 0
-12 14 -503 0
13 504 0
-15 504 0
-13 15 -504 0
-503 -504 505 0
14 506 0
-12 506 0
15 507 0
-13 507 0
-506 -507 508 0
-505 -508 509 0
-4 -3 -502 0
-509 502 -510 0
510 -744 0
20 -511 0
58 -511 0
-20 -58 511 0
-511 515 0
22 -513 0
59 -513 0
-22 -59 513 0
-513 515 0
511 513 -515 0
8 -517 0
12 -517 0
-8 -12 517 0
-517 521 0
10 -519 0
13 -519 0
-10 -13 519 0
-519 521 0
517 519 -521 0
521 -535 0
24 -523 0
58 -523 0
-24 -58 523 0
-523 531 0
28 -527 0
59 -527 0
-28 -59 527 0
-527 531 0
523 527 -531 0
531 -535 0
-521 -531 535 0
-535 539 0
9 -518 0
12 -518 0
-9 -12 518 0
-518 522 0
11 -520 0
13 -520 0
-11 -13 520 0
-520 522 0
518 520 -522 0
522 -537 0
26 -525 0
58 -525 0
-26 -58 525 0
-525 533 0
30 -529 0
59 -529 0
-30 -59 529 0
-529 533 0
525 529 -533 0
533 -537 0
-522 -533 537 0
-537 539 0
535 537 -539 0
-515 539 -541 0
541 -543 0
21 -512 0
58 -512 0
-21 -58 512 0
-512 516 0
23 -514 0
59 -514 0
-23 -59 514 0
-514 516 0
512 514 -516 0
521 -536 0
25 -524 0
58 -524 0
-25 -58 524 0
-524 532 0
29 -528 0
59 -528 0
-29 -59 528 0
-528 532 0
524 528 -532 0
532 -536 0
-521 -532 536 0
-536 540 0
522 -538 0
27 -526 0
58 -526 0
-27 -58 526 0
-526 534 0
31 -530 0
59 -530 0
-31 -59 530 0
-530 534 0
526 530 -534 0
534 -538 0
-522 -534 538 0
-538 540 0
536 538 -540 0
-516 540 -542 0
542 -543 0
543 -547 0
-539 515 -544 0
544 -546 0
-540 516 -545 0
545 -546 0
546 -547 0
-56 547 -548 0
548 -587 0
20 -549 0
60 -549 0
-20 -60 549 0
-549 553 0
22 -551 0
61 -551 0
-22 -61 551 0
-551 553 0
549 551 -553 0
8 -555 0
14 -555 0
-8 -14 555 0
-555 559 0
10 -557 0
15 -557 0
-10 -15 557 0
-557 559 0
555 557 -559 0
559 -573 0
24 -561 0
60 -561 0
-24 -60 561 0
-561 569 0
28 -565 0
61 -565 0
-28 -61 565 0
-565 569 0
561 565 -569 0
569 -573 0
-559 -569 573 0
-573 577 0
9 -556 0
14 -556 0
-9 -14 556 0
-556 560 0
11 -558 0
15 -558 0
-11 -15 558 0
-558 560 0
556 558 -560 0
560 -575 0
26 -563 0
60 -563 0
-26 -60 563 0
-563 571 0
30 -567 0
61 -567 0
-30 -61 567 0
-567 571 0
563 567 -571 0
571 -575 0
-560 -571 575 0
-575 577 0
573 575 -577 0
-553 577 -579 0
579 -581 0
21 -550 0
60 -550 0
-21 -60 550 0
-550 554 0
23 -552 0
61 -552 0
-23 -61 552 0
-552 554 0
550 552 -554 0
559 -574 0
25 -562 0
60 -562 0
-25 -60 562 0
-562 570 0
29 -566 0
61 -566 0
-29 -61 566 0
-566 570 0
562 566 -570 0
570 -574 0
-559 -570 574 0
-574 578 0
560 -576 0
27 -564 0
60 -564 0
-27 -60 564 0
-564 572 0
31 -568 0
61 -568 0
-31 -61 568 0
-568 572 0
564 568 -572 0
572 -576 0
-560 -572 576 0
-576 578 0
574 576 -578 0
-554 578 -580 0
580 -581 0
581 -585 0
-577 553 -582 0
582 -584 0
-578 554 -583 0
583 -584 0
584 -585 0
-57 585 -586 0
586 -587 0
-7 587 -588 0
588 -744 0
440 -592 0
-3 56 -589 0
589 -591 0
-4 57 -590 0
590 -591 0
591 -592 0
592 -742 0
-56 -58 593 0
-593 597 0
-57 -60 595 0
-595 597 0
-3 -24 599 0
-599 603 0
-4 -25 600 0
-600 603 0
-24 56 -605 0
605 -607 0
-25 57 -606 0
606 -607 0
607 -647 0
12 -608 0
24 -608 0
14 -610 0
25 -610 0
608 610 -612 0
612 632 0
1 -8 614 0
-614 620 0
2 -10 615 0
-9 -615 617 0
-617 620 0
-12 -620 626 0
-626 630 0
-615 625 0
-614 -615 618 0
-618 622 0
-11 -615 619 0
-619 622 0
-622 625 0
-13 -625 628 0
-628 630 0
-630 632 0
13 -609 0
24 -609 0
15 -611 0
25 -611 0
609 611 -613 0
613 633 0
-9 624 0
-486 621 0
-9 -614 616 0
-616 621 0
-621 624 0
-12 -624 627 0
-627 631 0
-11 623 0
-617 623 0
-13 -623 629 0
-629 631 0
-631 633 0
-632 -633 634 0
-634 -56 -635 0
635 -646 0
612 642 0
-14 -620 636 0
-636 640 0
-15 -625 638 0
-638 640 0
-640 642 0
613 643 0
-14 -624 637 0
-637 641 0
-15 -623 639 0
-639 641 0
-641 643 0
-642 -643 644 0
-644 -57 -645 0
645 -646 0
646 -647 0
-603 647 -648 0
648 -691 0
-3 -26 601 0
-601 604 0
-4 -27 602 0
-602 604 0
-26 56 -649 0
649 -651 0
-27 57 -650 0
650 -651 0
651 -689 0
12 -652 0
26 -652 0
14 -654 0
27 -654 0
652 654 -656 0
656 674 0
-8 662 0
1 -9 658 0
-10 -658 660 0
-660 662 0
-12 -662 668 0
-668 672 0
-10 667 0
-487 664 0
-619 664 0
-664 667 0
-13 -667 670 0
-670 672 0
-672 674 0
13 -653 0
26 -653 0
15 -655 0
27 -655 0
653 655 -657 0
657 675 0
-658 666 0
-616 663 0
2 -11 659 0
-658 -659 661 0
-661 663 0
-663 666 0
-12 -666 669 0
-669 673 0
-659 665 0
-660 665 0
-13 -665 671 0
-671 673 0
-673 675 0
-674 -675 676 0
-676 -56 -677 0
677 -688 0
656 684 0
-14 -662 678 0
-678 682 0
-15 -667 680 0
-680 682 0
-682 684 0
657 685 0
-14 -666 679 0
-679 683 0
-15 -665 681 0
-681 683 0
-683 685 0
-684 -685 686 0
-686 -57 -687 0
687 -688 0
688 -689 0
-604 689 -690 0
690 -691 0
-597 691 -692 0
692 -741 0
-56 -59 594 0
-594 598 0
-57 -61 596 0
-596 598 0
-3 -28 693 0
-693 697 0
-4 -29 694 0
-694 697 0
-28 56 -699 0
699 -701 0
-29 57 -700 0
700 -701 0
701 -717 0
12 -702 0
28 -702 0
14 -704 0
29 -704 0
702 704 -706 0
706 708 0
-630 708 0
13 -703 0
28 -703 0
15 -705 0
29 -705 0
703 705 -707 0
707 709 0
-631 709 0
-708 -709 710 0
-710 -56 -711 0
711 -716 0
706 712 0
-640 712 0
707 713 0
-641 713 0
-712 -713 714 0
-714 -57 -715 0
715 -716 0
716 -717 0
-697 717 -718 0
718 -739 0
-3 -30 695 0
-695 698 0
-4 -31 696 0
-696 698 0
-30 56 -719 0
719 -721 0
-31 57 -720 0
720 -721 0
721 -737 0
12 -722 0
30 -722 0
14 -724 0
31 -724 0
722 724 -726 0
726 728 0
-672 728 0
13 -723 0
30 -723 0
15 -725 0
31 -725 0
723 725 -727 0
727 729 0
-673 729 0
-728 -729 730 0
-730 -56 -731 0
731 -736 0
726 732 0
-682 732 0
727 733 0
-683 733 0
-732 -733 734 0
-734 -57 -735 0
735 -736 0
736 -737 0
-698 737 -738 0
738 -739 0
-598 739 -740 0
740 -741 0
741 -742 0
-7 742 -743 0
743 -744 0
-5 6 -745 0
745 -827 0
-5 -6 746 0
5 6 746 0
-6 6 746 0
-20 22 -747 0
-746 747 -748 0
748 -827 0
-20 -22 749 0
20 22 749 0
-22 22 749 0
-746 -749 750 0
-21 23 -751 0
-750 751 -752 0
752 -827 0
-21 -23 753 0
21 23 753 0
-23 23 753 0
-750 -753 754 0
-16 18 -755 0
-754 755 -756 0
756 -827 0
-16 -18 757 0
16 18 757 0
-18 18 757 0
-754 -757 758 0
-17 19 -759 0
-758 759 -760 0
760 -827 0
-17 -19 761 0
17 19 761 0
-19 19 761 0
-758 -761 762 0
-32 36 -763 0
-762 763 -764 0
764 -827 0
-32 -36 765 0
32 36 765 0
-36 36 765 0
-762 -765 766 0
-33 37 -767 0
-766 767 -768 0
768 -827 0
-33 -37 769 0
33 37 769 0
-37 37 769 0
-766 -769 770 0
-34 38 -771 0
-770 771 -772 0
772 -827 0
-34 -38 773 0
34 38 773 0
-38 38 773 0
-770 -773 774 0
-35 39 -775 0
-774 775 -776 0
776 -827 0
-35 -39 777 0
35 39 777 0
-39 39 777 0
-774 -777 778 0
-40 44 -779 0
-778 779 -780 0
780 -827 0
-40 -44 781 0
40 44 781 0
-44 44 781 0
-778 -781 782 0
-41 45 -783 0
-782 783 -784 0
784 -827 0
-41 -45 785 0
41 45 785 0
-45 45 785 0
-782 -785 786 0
-42 46 -787 0
-786 787 -788 0
788 -827 0
-42 -46 789 0
42 46 789 0
-46 46 789 0
-786 -789 790 0
-43 47 -791 0
-790 791 -792 0
792 -827 0
-43 -47 793 0
43 47 793 0
-47 47 793 0
-790 -793 794 0
-48 52 -795 0
-794 795 -796 0
796 -827 0
-48 -52 797 0
48 52 797 0
-52 52 797 0
-794 -797 798 0
-49 53 -799 0
-798 799 -800 0
800 -827 0
-49 -53 801 0
49 53 801 0
-53 53 801 0
-798 -801 802 0
-50 54 -803 0
-802 803 -804 0
804 -827 0
-50 -54 805 0
50 54 805 0
-54 54 805 0
-802 -805 806 0
-51 55 -807 0
-806 807 -808 0
808 -827 0
-51 -55 809 0
51 55 809 0
-55 55 809 0
-806 -809 810 0
-24 28 -811 0
-810 811 -812 0
812 -827 0
-24 -28 813 0
24 28 813 0
-28 28 813 0
-810 -813 814 0
-25 29 -815 0
-814 815 -816 0
816 -827 0
-25 -29 817 0
25 29 817 0
-29 29 817 0
-814 -817 818 0
-26 30 -819 0
-818 819 -820 0
820 -827 0
-26 -30 821 0
26 30 821 0
-30 30 821 0
-818 -821 822 0
-27 31 -823 0
-822 823 -824 0
824 -827 0
827 -988 0
-3 4 -828 0
828 -904 0
-3 -4 829 0
3 4 829 0
-4 4 829 0
-829 503 -830 0
830 -904 0
-12 -14 831 0
12 14 831 0
-14 14 831 0
-829 -831 832 0
-832 504 -833 0
833 -904 0
-13 -15 834 0
13 15 834 0
-15 15 834 0
-832 -834 835 0
-20 21 -836 0
-835 836 -837 0
837 -904 0
-20 -21 838 0
20 21 838 0
-21 21 838 0
-835 -838 839 0
-22 23 -840 0
-839 840 -841 0
841 -904 0
-22 -23 842 0
22 23 842 0
-23 23 842 0
-839 -842 843 0
-16 17 -844 0
-843 844 -845 0
845 -904 0
-16 -17 846 0
16 17 846 0
-17 17 846 0
-843 -846 847 0
-18 19 -848 0
-847 848 -849 0
849 -904 0
-18 -19 850 0
18 19 850 0
-19 19 850 0
-847 -850 851 0
-56 57 -852 0
-851 852 -853 0
853 -904 0
-56 -57 854 0
56 57 854 0
-57 57 854 0
-851 -854 855 0
-32 33 -856 0
-855 856 -857 0
857 -904 0
-32 -33 858 0
32 33 858 0
-33 33 858 0
-855 -858 859 0
-34 35 -860 0
-859 860 -861 0
861 -904 0
-34 -35 862 0
34 35 862 0
-35 35 862 0
-859 -862 863 0
-36 37 -864 0
-863 864 -865 0
865 -904 0
-36 -37 866 0
36 37 866 0
-37 37 866 0
-863 -866 867 0
-38 39 -868 0
-867 868 -869 0
869 -904 0
-38 -39 870 0
38 39 870 0
-39 39 870 0
-867 -870 871 0
-40 41 -872 0
-871 872 -873 0
873 -904 0
-40 -41 874 0
40 41 874 0
-41 41 874 0
-871 -874 875 0
-42 43 -876 0
-875 876 -877 0
877 -904 0
-42 -43 878 0
42 43 878 0
-43 43 878 0
-875 -878 879 0
-44 45 -880 0
-879 880 -881 0
881 -904 0
-44 -45 882 0
44 45 882 0
-45 45 882 0
-879 -882 883 0
-46 47 -884 0
-883 884 -885 0
885 -904 0
-46 -47 886 0
46 47 886 0
-47 47 886 0
-883 -886 887 0
-48 49 -888 0
-887 888 -889 0
889 -904 0
-48 -49 890 0
48 49 890 0
-49 49 890 0
-887 -890 891 0
-50 51 -892 0
-891 892 -893 0
893 -904 0
-50 -51 894 0
50 51 894 0
-51 51 894 0
-891 -894 895 0
-52 53 -896 0
-895 896 -897 0
897 -904 0
-52 -53 898 0
52 53 898 0
-53 53 898 0
-895 -898 899 0
-54 55 -900 0
-899 900 -901 0
901 -904 0
904 -988 0
-1 2 -905 0
905 -987 0
-1 -2 906 0
1 2 906 0
-2 2 906 0
-8 11 -907 0
-906 907 -908 0
908 -987 0
-8 -11 909 0
8 11 909 0
-11 11 909 0
-906 -909 910 0
-9 10 -911 0
-910 911 -912 0
912 -987 0
-9 -10 913 0
9 10 913 0
-10 10 913 0
-910 -913 914 0
-12 13 -915 0
-914 915 -916 0
916 -987 0
-12 -13 917 0
12 13 917 0
-13 13 917 0
-914 -917 918 0
-14 15 -919 0
-918 919 -920 0
920 -987 0
-14 -15 921 0
14 15 921 0
-15 15 921 0
-918 -921 922 0
-32 34 -923 0
-922 923 -924 0
924 -987 0
-32 -34 925 0
32 34 925 0
-34 34 925 0
-922 -925 926 0
-33 35 -927 0
-926 927 -928 0
928 -987 0
-33 -35 929 0
33 35 929 0
-35 35 929 0
-926 -929 930 0
-36 38 -931 0
-930 931 -932 0
932 -987 0
-36 -38 933 0
36 38 933 0
-38 38 933 0
-930 -933 934 0
-37 39 -935 0
-934 935 -936 0
936 -987 0
-37 -39 937 0
37 39 937 0
-39 39 937 0
-934 -937 938 0
-40 42 -939 0
-938 939 -940 0
940 -987 0
-40 -42 941 0
40 42 941 0
-42 42 941 0
-938 -941 942 0
-41 43 -943 0
-942 943 -944 0
944 -987 0
-41 -43 945 0
41 43 945 0
-43 43 945 0
-942 -945 946 0
-44 46 -947 0
-946 947 -948 0
948 -987 0
-44 -46 949 0
44 46 949 0
-46 46 949 0
-946 -949 950 0
-45 47 -951 0
-950 951 -952 0
952 -987 0
-45 -47 953 0
45 47 953 0
-47 47 953 0
-950 -953 954 0
-48 50 -955 0
-954 955 -956 0
956 -987 0
-48 -50 957 0
48 50 957 0
-50 50 957 0
-954 -957 958 0
-49 51 -959 0
-958 959 -960 0
960 -987 0
-49 -51 961 0
49 51 961 0
-51 51 961 0
-958 -961 962 0
-52 54 -963 0
-962 963 -964 0
964 -987 0
-52 -54 965 0
52 54 965 0
-54 54 965 0
-962 -965 966 0
-53 55 -967 0
-966 967 -968 0
968 -987 0
-53 -55 969 0
53 55 969 0
-55 55 969 0
-966 -969 970 0
-24 26 -971 0
-970 971 -972 0
972 -987 0
-24 -26 973 0
24 26 973 0
-26 26 973 0
-970 -973 974 0
-25 27 -975 0
-974 975 -976 0
976 -987 0
-25 -27 977 0
25 27 977 0
-27 27 977 0
-974 -977 978 0
-28 30 -979 0
-978 979 -980 0
980 -987 0
-28 -30 981 0
28 30 981 0
-30 30 981 0
-978 -981 982 0
-29 31 -983 0
-982 983 -984 0
984 -987 0
987 -988 0
744 0
988 0
c ind 1 2 3 4 5 6 7 8 9 10 11 12 13 14 15 16 17 18 19 20 21 22 23 24 25 26 27 28 29 30 31 32 33 34 35 36 37 38 39 40 41 42 43 44 45 46 47 48 49 50 51 52 53 54 55 56 57 58 59 60 61 0
